
Starting CP-SAT solver v9.15.6755
Parameters: random_seed: 2026074508 max_time_in_seconds: 8404.412715281 log_search_progress: true cp_model_presolve: true linearization_level: 2 num_search_workers: 4 cp_model_probing_level: 2 symmetry_level: 2

Initial satisfaction model '': (model_fingerprint: 0xca32320d156031da)
#Variables: 724 (608 primary variables)
  - 724 Booleans in [0,1]
#kBoolAnd: 110 (#enforced: 110) (#literals: 330)
#kBoolOr: 110 (#enforced: 110) (#literals: 220)
#kExactlyOne: 87 (#literals: 261)
#kLinear1: 32 (#enforced: 6)
#kLinear2: 336 (#enforced: 336) (#complex_domain: 110)
#kLinear3: 1'600 (#enforced: 6)
#kLinearN: 1'132 (#enforced: 243) (#terms: 9'111)

Starting presolve at 0.00s
  7.11e-04s  0.00e+00d  [DetectDominanceRelations] 
  8.91e-03s  0.00e+00d  [PresolveToFixPoint] #num_loops=3 #num_dual_strengthening=1 
  5.08e-05s  0.00e+00d  [ExtractEncodingFromLinear] #potential_supersets=86 
  2.85e-04s  0.00e+00d  [DetectDuplicateColumns] 
  1.02e-04s  0.00e+00d  [DetectDuplicateConstraints] #duplicates=5 
[Symmetry] Graph for symmetry has 4'868 nodes and 15'700 arcs.
[Symmetry] Symmetry computation done. time: 0.00147993 dtime: 0.0021924
[SAT presolve] num removable Booleans: 220 / 626
[SAT presolve] num trivial clauses: 0
[SAT presolve] [0s] clauses:2'736 literals:7'444 vars:506 one_side_vars:66 simple_definition:1 singleton_clauses:0
[SAT presolve] [0.000255229s] clauses:2'735 literals:7'437 vars:506 one_side_vars:66 simple_definition:1 singleton_clauses:0
[SAT presolve] [0.0005929s] clauses:2'503 literals:7'102 vars:394 one_side_vars:66 simple_definition:2 singleton_clauses:0
  1.32e-04s  0.00e+00d  [DetectDuplicateConstraintsWithDifferentEnforcements] 
  6.60e-03s  3.69e-03d  [Probe] #probed=1'316 #equiv=3 #new_binary_clauses=1'515 
  7.55e-04s  1.03e-03d  [MaxClique] Merged 691 constraints with 1'534 literals into 576 constraints with 1'361 literals
  9.80e-04s  0.00e+00d  [DetectDominanceRelations] 
  3.31e-03s  0.00e+00d  [PresolveToFixPoint] #num_loops=1 #num_dual_strengthening=1 
  1.26e-03s  0.00e+00d  [ProcessAtMostOneAndLinear] 
  1.13e-04s  0.00e+00d  [DetectDuplicateConstraints] 
  9.36e-05s  0.00e+00d  [DetectDuplicateConstraintsWithDifferentEnforcements] 
  6.47e-03s  1.51e-04d  [DetectDominatedLinearConstraints] #relevant_constraints=833 #num_inclusions=719 #num_redundant=6 
  2.11e-04s  0.00e+00d  [DetectDifferentVariables] 
  8.63e-04s  9.10e-05d  [ProcessSetPPC] #relevant_constraints=3'270 #num_inclusions=279 
  3.11e-04s  3.61e-05d  [TransformClausesToExactlyOne] #num_amos=653 #num_clauses=1'809 #num_transformed=5 #num_checked=1'809 
  5.27e-05s  0.00e+00d  [DetectEncodedComplexDomains] 
  2.95e-05s  0.00e+00d  [FindAlmostIdenticalLinearConstraints] 
  1.07e-03s  1.52e-03d  [FindBigAtMostOneAndLinearOverlap] 
  1.55e-03s  1.13e-03d  [FindBigVerticalLinearOverlap] #blocks=9 #saved_nz=345 
  1.84e-04s  2.74e-04d  [FindBigHorizontalLinearOverlap] #linears=468 
  3.78e-04s  2.82e-05d  [MergeClauses] #num_collisions=4 #num_merges=4 #num_saved_literals=8 
  9.76e-04s  0.00e+00d  [DetectDominanceRelations] 
  3.46e-03s  0.00e+00d  [PresolveToFixPoint] #num_loops=2 #num_dual_strengthening=1 
  9.56e-04s  0.00e+00d  [DetectDominanceRelations] 
  3.21e-03s  0.00e+00d  [PresolveToFixPoint] #num_loops=1 #num_dual_strengthening=1 
  2.29e-04s  0.00e+00d  [DetectDuplicateColumns] 
  9.72e-05s  0.00e+00d  [DetectDuplicateConstraints] 
[Symmetry] Graph for symmetry has 4'727 nodes and 14'554 arcs.
[Symmetry] Symmetry computation done. time: 0.00109548 dtime: 0.00149275
[SAT presolve] num removable Booleans: 102 / 520
[SAT presolve] num trivial clauses: 0
[SAT presolve] [0s] clauses:2'413 literals:6'889 vars:493 one_side_vars:167 simple_definition:22 singleton_clauses:0
[SAT presolve] [0.000254368s] clauses:2'410 literals:6'726 vars:493 one_side_vars:171 simple_definition:87 singleton_clauses:0
[SAT presolve] [0.000406794s] clauses:2'214 literals:6'280 vars:488 one_side_vars:209 simple_definition:67 singleton_clauses:0
  1.57e-04s  0.00e+00d  [DetectDuplicateConstraintsWithDifferentEnforcements] #without_enforcements=3 
  6.34e-03s  2.31e-03d  [Probe] #probed=1'334 #new_binary_clauses=1'427 
  5.37e-04s  5.75e-04d  [MaxClique] Merged 549 constraints with 1'252 literals into 536 constraints with 1'241 literals
  9.52e-04s  0.00e+00d  [DetectDominanceRelations] 
  3.23e-03s  0.00e+00d  [PresolveToFixPoint] #num_loops=1 #num_dual_strengthening=1 
  1.17e-03s  0.00e+00d  [ProcessAtMostOneAndLinear] 
  1.19e-04s  0.00e+00d  [DetectDuplicateConstraints] 
  9.21e-05s  0.00e+00d  [DetectDuplicateConstraintsWithDifferentEnforcements] 
  6.69e-04s  5.42e-05d  [DetectDominatedLinearConstraints] #relevant_constraints=825 #num_inclusions=303 
  1.33e-04s  0.00e+00d  [DetectDifferentVariables] 
  8.21e-04s  7.25e-05d  [ProcessSetPPC] #relevant_constraints=3'158 #num_inclusions=88 
  3.13e-04s  3.34e-05d  [TransformClausesToExactlyOne] #num_amos=531 #num_clauses=1'737 #num_checked=1'737 
  1.60e-04s  0.00e+00d  [DetectEncodedComplexDomains] 
  3.63e-05s  0.00e+00d  [FindAlmostIdenticalLinearConstraints] 
  9.02e-04s  1.10e-03d  [FindBigAtMostOneAndLinearOverlap] 
  1.28e-03s  9.33e-04d  [FindBigVerticalLinearOverlap] 
  1.91e-04s  2.74e-04d  [FindBigHorizontalLinearOverlap] #linears=468 
  3.61e-04s  2.66e-05d  [MergeClauses] #num_collisions=74 #num_merges=74 #num_saved_literals=183 
  9.62e-04s  0.00e+00d  [DetectDominanceRelations] 
  3.27e-03s  0.00e+00d  [PresolveToFixPoint] #num_loops=1 #num_dual_strengthening=1 
  9.57e-04s  0.00e+00d  [DetectDominanceRelations] 
  3.24e-03s  0.00e+00d  [PresolveToFixPoint] #num_loops=1 #num_dual_strengthening=1 
  1.47e-04s  0.00e+00d  [DetectDuplicateColumns] 
  9.43e-05s  0.00e+00d  [DetectDuplicateConstraints] 
[Symmetry] Graph for symmetry has 4'461 nodes and 13'607 arcs.
[Symmetry] Symmetry computation done. time: 0.00104896 dtime: 0.00141278
[SAT presolve] num removable Booleans: 97 / 515
[SAT presolve] num trivial clauses: 0
[SAT presolve] [0s] clauses:2'189 literals:6'222 vars:488 one_side_vars:209 simple_definition:67 singleton_clauses:0
[SAT presolve] [0.000219215s] clauses:2'189 literals:6'222 vars:488 one_side_vars:209 simple_definition:67 singleton_clauses:0
[SAT presolve] [0.000290812s] clauses:2'189 literals:6'222 vars:488 one_side_vars:209 simple_definition:67 singleton_clauses:0
  1.65e-04s  0.00e+00d  [DetectDuplicateConstraintsWithDifferentEnforcements] 
  6.25e-03s  2.30e-03d  [Probe] #probed=1'334 #new_binary_clauses=1'427 
  5.30e-04s  5.67e-04d  [MaxClique] 
  9.70e-04s  0.00e+00d  [DetectDominanceRelations] 
  3.29e-03s  0.00e+00d  [PresolveToFixPoint] #num_loops=1 #num_dual_strengthening=1 
  1.17e-03s  0.00e+00d  [ProcessAtMostOneAndLinear] 
  1.10e-04s  0.00e+00d  [DetectDuplicateConstraints] 
  1.06e-04s  0.00e+00d  [DetectDuplicateConstraintsWithDifferentEnforcements] 
  6.66e-04s  5.42e-05d  [DetectDominatedLinearConstraints] #relevant_constraints=825 #num_inclusions=303 
  1.35e-04s  0.00e+00d  [DetectDifferentVariables] 
  8.60e-04s  7.23e-05d  [ProcessSetPPC] #relevant_constraints=3'151 #num_inclusions=81 
  3.37e-04s  3.34e-05d  [TransformClausesToExactlyOne] #num_amos=529 #num_clauses=1'737 #num_checked=1'737 
  1.46e-04s  0.00e+00d  [DetectEncodedComplexDomains] 
  3.98e-05s  0.00e+00d  [FindAlmostIdenticalLinearConstraints] 
  9.21e-04s  1.10e-03d  [FindBigAtMostOneAndLinearOverlap] 
  1.31e-03s  8.93e-04d  [FindBigVerticalLinearOverlap] #blocks=3 #saved_nz=260 
  2.00e-04s  2.74e-04d  [FindBigHorizontalLinearOverlap] #linears=470 
  3.68e-04s  2.66e-05d  [MergeClauses] #num_collisions=74 #num_merges=74 #num_saved_literals=183 
  9.73e-04s  0.00e+00d  [DetectDominanceRelations] 
  3.37e-03s  0.00e+00d  [PresolveToFixPoint] #num_loops=2 #num_dual_strengthening=1 
  2.24e-05s  0.00e+00d  [MergeNoOverlap] 
  2.18e-05s  0.00e+00d  [MergeNoOverlap2D] 

Presolve summary:
  - 34 affine relations were detected.
  - rule 'TODO dual: only one blocking constraint?' was applied 952 times.
  - rule 'TODO linear inclusion: superset is equality' was applied 313 times.
  - rule 'affine: new relation' was applied 34 times.
  - rule 'at_most_one: transformed into max clique' was applied 2 times.
  - rule 'bool_or: implications' was applied 81 times.
  - rule 'bool_or: only one literal' was applied 12 times.
  - rule 'bool_or: removed enforcement literal' was applied 581 times.
  - rule 'clauses: transformed into exactly one' was applied 5 times.
  - rule 'deductions: 881 stored' was applied 1 time.
  - rule 'duplicate: merged rhs of linear constraint' was applied 4 times.
  - rule 'duplicate: removed constraint' was applied 5 times.
  - rule 'duplicate: removed enforced constraint' was applied 3 times.
  - rule 'enforcement: false literal' was applied 28 times.
  - rule 'enforcement: true literal' was applied 2 times.
  - rule 'exactly_one: removed literals' was applied 32 times.
  - rule 'exactly_one: satisfied' was applied 3 times.
  - rule 'exactly_one: singleton' was applied 2 times.
  - rule 'exactly_one: size two' was applied 30 times.
  - rule 'incompatible linear: add implication' was applied 144 times.
  - rule 'linear + amo: empty after processing' was applied 6 times.
  - rule 'linear + amo: extracted enforcement literal' was applied 60 times.
  - rule 'linear + amo: trivial linear constraint' was applied 1 time.
  - rule 'linear inclusion: redundant containing constraint' was applied 2 times.
  - rule 'linear inclusion: redundant included constraint' was applied 3 times.
  - rule 'linear inclusion: sparsify superset' was applied 1 time.
  - rule 'linear matrix: common vertical rectangle' was applied 12 times.
  - rule 'linear1: always true' was applied 2 times.
  - rule 'linear1: x in domain' was applied 26 times.
  - rule 'linear2: convert ax + by != cte to clauses' was applied 259 times.
  - rule 'linear2: convert implied ax + by == cte to clauses' was applied 120 times.
  - rule 'linear2: implied ax + by = cte has only one solution' was applied 8 times.
  - rule 'linear: always true' was applied 418 times.
  - rule 'linear: empty' was applied 3 times.
  - rule 'linear: enforcement literal in expression' was applied 2 times.
  - rule 'linear: extracted at most one (max)' was applied 1 time.
  - rule 'linear: fixed or dup variables' was applied 879 times.
  - rule 'linear: negative clause' was applied 1'305 times.
  - rule 'linear: negative reified and' was applied 78 times.
  - rule 'linear: never in domain' was applied 6 times.
  - rule 'linear: positive at most one' was applied 34 times.
  - rule 'linear: reduced variable domains' was applied 13 times.
  - rule 'linear: remapped using affine relations' was applied 23 times.
  - rule 'new_bool: integer encoding' was applied 9 times.
  - rule 'presolve: 66 unused variables removed.' was applied 1 time.
  - rule 'presolve: iteration' was applied 3 times.
  - rule 'probing: bool_or reduced to implication' was applied 40 times.
  - rule 'probing: simplified clauses' was applied 8 times.
  - rule 'setppc: bool_or in at_most_one' was applied 12 times.
  - rule 'setppc: removed dominated constraints' was applied 99 times.
  - rule 'variables: add encoding constraint' was applied 9 times.
  - rule 'variables: both boolean and its negation fix the same variable' was applied 1 time.
  - rule 'variables: detect half reified value encoding' was applied 2 times.

Presolved satisfaction model '': (model_fingerprint: 0x9168b185c39d26dc)
#Variables: 526 (449 primary variables)
  - 515 Booleans in [0,1]
  - 10 in [0,2]
  - 1 in [0,9]
#kAtMostOne: 77 (#literals: 308)
#kBoolAnd: 271 (#enforced: 271) (#literals: 723)
#kBoolAndClauses: 74 (#enforced: 74 #multi: 74) (#literals: 331)
#kBoolOr: 1'589 (#literals: 4'804)
#kExactlyOne: 63 (#literals: 237)
#kLinear1: 18 (#enforced: 18)
#kLinear3: 3 (#enforced: 2)
#kLinearN: 824 (#enforced: 134) (#terms: 5'508)
[Symmetry] Graph for symmetry has 4'250 nodes and 13'349 arcs.
[Symmetry] Symmetry computation done. time: 0.000876951 dtime: 0.00138514

Preloading model.
#Model   0.11s var:526/526 constraints:2919/2919

Starting search at 0.11s with 4 workers.
3 full problem subsolvers: [default_lp, max_lp, no_lp]
1 first solution subsolver: [fj]
2 interleaved subsolvers: [feasibility_pump, rins/rens]
2 helper subsolvers: [neighborhood_helper, synchronization_agent]

#Model   0.28s var:525/526 constraints:2915/2919
#Model  53.96s var:524/526 constraints:2913/2919
#Model 236.18s var:523/526 constraints:2909/2919
#Model 1299.84s var:522/526 constraints:2890/2919
#Model 1409.23s var:519/526 constraints:2868/2919
#Model 1891.96s var:518/526 constraints:2848/2919
#Model 1935.67s var:517/526 constraints:2831/2919
#Model 1998.34s var:508/526 constraints:2698/2919
#Model 1999.16s var:495/526 constraints:2549/2919
#Model 1999.54s var:485/526 constraints:2424/2919
#Done  1999.66s no_lp

Task timing                   n [     min,      max]      avg      dev     time         n [     min,      max]      avg      dev    dtime
        'default_lp':         1 [  33.33m,   33.33m]   33.33m   0.00ns   33.33m         2 [  2.43ms,   33.19m]   16.59m   16.59m   33.19m
  'feasibility_pump':      9912 [924.73us, 140.03ms]   1.60ms   1.42ms   15.87s      9911 [294.90us, 119.72ms] 308.52us   1.20ms    3.06s
                'fj':      7170 [ 99.17ms, 182.19ms] 138.26ms   9.88ms   16.52m      7170 [ 91.20ms, 100.11ms] 100.01ms 104.73us   11.95m
            'max_lp':         1 [  33.33m,   33.33m]   33.33m   0.00ns   33.33m         2 [ 92.75ms,   39.72m]   19.86m   19.86m   39.72m
             'no_lp':         1 [  33.33m,   33.33m]   33.33m   0.00ns   33.33m         2 [  2.28ms,    1.09h]   32.64m   32.64m    1.09h
         'rins/rens':      9137 [ 22.27ms, 202.68ms] 108.48ms  42.24ms   16.52m      9137 [290.56us, 100.34ms]  67.12ms  38.16ms   10.22m

Search stats     Bools   Conflicts    Branches  Restarts  BacktrackToRoot   Backtrack     BoolPropag  IntegerPropag
  'default_lp':    515     186'431   5'774'310       938          957'119   1'389'644     74'020'934     73'351'715
      'max_lp':    515     145'951   6'723'795       653        1'099'502   1'526'077     86'436'066     88'651'336
       'no_lp':    515  15'069'322  20'284'153    49'970          423'144  15'347'329  1'401'489'754    319'026'263

SAT formula      Fixed  Equiv  Total  VarLeft  BinaryClauses  PermanentClauses  TemporaryClauses
  'default_lp':      9      7    515      499          3'266            37'727             4'035
      'max_lp':      9      7    515      499          3'204            39'838             5'952
       'no_lp':    167      7    515      341          3'300            64'209             3'558

SAT stats        ClassicMinim   LitRemoved  LitRemovedBinary   LitLearned  LitForgotten   Subsumed
  'default_lp':       165'921    2'255'339         1'065'283    5'254'017     3'220'179     71'092
      'max_lp':       124'498    1'562'778           719'145    3'350'853     1'925'859     47'081
       'no_lp':    13'537'838  232'237'955        59'865'011  349'183'406   266'677'298  4'515'441

Vivification       Clauses  Decisions  LitTrue  Subsumed  LitRemoved  DecisionReused  Conflicts
  'default_lp':    994'129  5'336'635        2    15'604     173'948         306'340      1'859
      'max_lp':  1'118'008  6'281'661        1    17'045     191'789         339'799      1'980
       'no_lp':    313'149  2'547'620        0    19'015     268'695          83'033      1'688

Clause deletion    at_true  l_and_not(l)  to_binary  sub_conflict  sub_extra  sub_decisions  sub_eager  sub_vivify  sub_probing  sub_inpro  blocked  eliminated  forgotten    promoted   conflicts
    'default_lp':    7'455            19         20        70'097        474          2'894        995      15'604        7'942     19'490        0           0     90'558     352'900     186'431
        'max_lp':    6'750            16         23        46'506        357          1'802        575      17'045        9'173     19'401        0           0     70'469     295'391     145'951
         'no_lp':   69'652            28        257     4'437'518     28'616        245'719     77'923      19'015       18'972    151'937        0           0  9'955'485  33'655'594  15'069'322

Lp stats         Component  Iterations  AddedCuts  OPTIMAL  DUAL_F.  DUAL_U.
  'default_lp':          1  22'935'570     76'575  249'976        1  134'672
      'max_lp':          1  10'420'697     95'785   40'308  121'996   26'660

Lp dimension       Final dimension of first component
  'default_lp':   336 rows, 368 columns, 3152 entries
      'max_lp':  1220 rows, 526 columns, 9986 entries

Lp debug         CutPropag  CutEqPropag   Adjust  Overflow        Bad  BadScaling
  'default_lp':          0            9  134'671         0  1'972'397           0
      'max_lp':          0           13   26'651         0  2'670'492           0

Lp pool          Constraints  Updates  Simplif  Merged  Shortened  Split  Strengthened       Cuts/Call
  'default_lp':       10'383   15'742        0       0        138      0             0  76'575/151'481
      'max_lp':       13'037   34'829        0       7         81      0         2'282  95'785/212'959

Lp Cut            default_lp  max_lp
          CG_FF:       1'002     124
           CG_K:         551      11
          CG_KL:         488       6
           CG_R:       1'042      62
          CG_RB:          58       1
         CG_RBP:          20       -
         Clique:           -     256
             IB:         135      26
       MIR_1_FF:         554   1'054
        MIR_1_K:         154      27
       MIR_1_KL:         386      40
        MIR_1_R:         475     464
       MIR_1_RB:           9       -
      MIR_1_RLT:           -   8'911
       MIR_2_FF:         636     892
        MIR_2_K:         134     201
       MIR_2_KL:         331      96
        MIR_2_R:         644     871
       MIR_2_RB:          16       3
      MIR_2_RBP:          13       -
       MIR_3_FF:         297     247
        MIR_3_K:          53      34
       MIR_3_KL:          99      20
        MIR_3_R:         328     289
       MIR_3_RB:           3       3
      MIR_3_RBP:           5       9
       MIR_4_FF:          63      59
        MIR_4_K:          10      13
       MIR_4_KL:          24       8
        MIR_4_R:         233     232
       MIR_4_RB:           6       3
      MIR_4_RBP:           3       9
       MIR_5_FF:          32      24
        MIR_5_K:           5       7
       MIR_5_KL:          10       3
        MIR_5_R:         208     226
       MIR_5_RB:           9       3
      MIR_5_RBP:           4      17
       MIR_6_FF:          10      12
        MIR_6_K:           3       2
        MIR_6_R:         150     219
       MIR_6_RB:           5       1
      MIR_6_RBP:           1      11
   ZERO_HALF_FF:         293     749
    ZERO_HALF_K:          87      49
   ZERO_HALF_KL:          72       6
    ZERO_HALF_R:      67'818  80'402
   ZERO_HALF_RB:          26      14
  ZERO_HALF_RBP:          70      69

LNS stats       Improv/Calls  Closed  Difficulty  TimeLimit
  'rins/rens':     9137/9137     50%    7.95e-01       0.10

LS stats                                    Batches  Restarts/Perturbs    LinMoves    GenMoves  CompoundMoves  Bactracks  WeightUpdates  ScoreComputed
                             'fj_restart':      437                110  14'040'321           0              0          0     11'059'493     26'704'347
                    'fj_restart_compound':      330                 99           0   4'272'544        249'748  2'011'153          7'821     64'477'534
                'fj_restart_compound_obj':      343                105           0   4'472'923        263'804  2'104'330          7'987     66'940'665
            'fj_restart_compound_perturb':      367                105           0   4'744'588        257'411  2'243'333          9'218     71'594'687
        'fj_restart_compound_perturb_obj':      355                107           0   4'619'837        263'076  2'178'097          8'685     69'360'560
                       'fj_restart_decay':      280                 92  10'689'717           0              0          0        407'267      7'296'548
              'fj_restart_decay_compound':      834                 84           0  12'485'515      1'829'643  5'327'684         10'299    165'687'474
          'fj_restart_decay_compound_obj':      505                 94           0   7'338'000      1'079'284  3'129'112          6'374    100'187'960
      'fj_restart_decay_compound_perturb':      405                 92           0   5'779'834        850'328  2'464'516          5'142     80'265'015
  'fj_restart_decay_compound_perturb_obj':      639                 93           0   9'429'812      1'381'806  4'023'794          7'936    126'929'906
                   'fj_restart_decay_obj':      331                105  12'648'085           0              0          0        482'075      8'548'264
               'fj_restart_decay_perturb':      388                 93  14'825'077           0              0          0        565'380     10'008'329
           'fj_restart_decay_perturb_obj':      662                 98  25'303'468           0              0          0        964'728     17'034'425
                         'fj_restart_obj':      584                101  19'267'576           0              0          0     15'254'584     35'575'893
                     'fj_restart_perturb':      277                101   8'933'937           0              0          0      6'899'701     16'546'638
                 'fj_restart_perturb_obj':      433                121  13'670'555           0              0          0     11'108'983     25'954'394

Solution repositories    Added  Queried  Synchro
    'alternative_path':      0        0        0
      'best_solutions':      0        0        0
   'fj solution hints':  1'592        0    1'592
        'lp solutions':  1'557    9'137    1'554
                'pump':      0        0

Improving bounds shared    Num  Sym
            'default_lp':    5    0
                'max_lp':    4    0
                 'no_lp':  155    0

Clauses shared    #Exported  #Imported  #BinaryRead  #BinaryTotal
   'default_lp':      3'219     72'517          351           636
       'max_lp':      3'786     71'236          315           636
        'no_lp':     72'589      7'586          636           636

LRAT_status: NA
CpSolverResponse summary:
status: INFEASIBLE
objective: NA
best_bound: NA
integers: 368
booleans: 515
conflicts: 15069322
branches: 20284153
propagations: 1401489754
integer_propagations: 319026263
restarts: 49970
lp_iterations: 0
walltime: 1999.69
usertime: 1999.69
deterministic_time: 9624.11
gap_integral: 0

{
  "board_size": 22,
  "parity_proved": 0,
  "target": 34,
  "child_id": 2308,
  "child_count": 2640,
  "partition": "unknown_pair_x_diag_plus_twos_x_diag_minus_twos",
  "build_seconds": 0.08029985427856445,
  "workers": 4,
  "requested_seed": 2026074508,
  "effective_seed": 2026074508,
  "main_diagonal_pair": [
    5,
    16
  ],
  "pair_index": 95,
  "diag_plus_twos": 17,
  "diag_minus_twos": 16,
  "pair_excess": 0,
  "residual_certificate_slack": 112,
  "analytic_minimum_line_defect": 0,
  "analytic_defect_details": {
    "row_costs": {
      "12": 6,
      "13": 3,
      "14": 0,
      "15": 0,
      "16": 0,
      "17": 0
    },
    "column_costs": {
      "12": 6,
      "13": 3,
      "14": 0,
      "15": 0,
      "16": 0,
      "17": 0
    },
    "plus_cost": 0,
    "minus_cost": 0,
    "row_column_minimum": 0
  },
  "maximal_line_constraints": 2455,
  "analytic_infeasible": false,
  "allowed_points": 242,
  "status": "INFEASIBLE",
  "proof_method": "cp_sat_all_lines_with_certificate_profile_cuts",
  "elapsed_seconds": 1999.686906337738,
  "branches": 20284153,
  "conflicts": 15069322
}
